32	0

0	1	2
1	1	3
8	1	4
1	1	5
2	1	6
2	2	7	8
9	1	9
6	1	9
10	1	10
3	1	11
9	1	12
4	1	13
2	1	14
2	1	15
6	1	16
6	1	17
8	1	18
6	1	19
1	1	20
9	1	21
4	1	22
10	1	23
5	2	24	25
10	1	26
10	1	26
5	1	27
5	2	28	30
2	1	29
3	1	31
8	1	31
4	1	32
0	0
